p tw 160 32801 2 
1 82 
1 84 
1 86 
1 88 
1 89 
1 91 
1 93 
1 95 
1 97 
1 100 
1 102 
1 104 
1 106 
1 107 
1 109 
1 111 
1 113 
1 115 
1 117 
1 119 
1 121 
1 123 
1 125 
1 128 
1 129 
1 131 
1 133 
1 135 
1 137 
1 139 
1 141 
1 143 
1 145 
1 147 
1 149 
1 152 
1 153 
1 155 
1 157 
1 159 
2 81 
2 83 
2 85 
2 87 
2 90 
2 92 
2 94 
2 96 
2 98 
2 99 
2 101 
2 103 
2 105 
2 108 
2 110 
2 112 
2 114 
2 116 
2 118 
2 120 
2 122 
2 124 
2 126 
2 127 
2 130 
2 132 
2 134 
2 136 
2 138 
2 140 
2 142 
2 144 
2 146 
2 148 
2 150 
2 151 
2 154 
2 156 
2 158 
2 160 
3 4 
3 82 
3 84 
3 86 
3 88 
3 90 
3 92 
3 94 
3 95 
3 97 
3 100 
3 102 
3 104 
3 106 
3 108 
3 110 
3 112 
3 114 
3 116 
3 118 
3 120 
3 122 
3 124 
3 126 
3 128 
3 130 
3 131 
3 134 
3 136 
3 137 
3 140 
3 141 
3 143 
3 145 
3 148 
3 149 
3 152 
3 153 
3 156 
3 157 
3 160 
4 81 
4 83 
4 85 
4 87 
4 89 
4 91 
4 93 
4 96 
4 98 
4 99 
4 101 
4 103 
4 105 
4 107 
4 109 
4 111 
4 113 
4 115 
4 117 
4 119 
4 121 
4 123 
4 125 
4 127 
4 129 
4 132 
4 133 
4 135 
4 138 
4 139 
4 142 
4 144 
4 146 
4 147 
4 150 
4 151 
4 154 
4 155 
4 158 
4 159 
5 6 
5 81 
5 84 
5 85 
5 87 
5 89 
5 92 
5 93 
5 96 
5 97 
5 100 
5 102 
5 103 
5 106 
5 107 
5 110 
5 112 
5 113 
5 116 
5 117 
5 120 
5 121 
5 124 
5 126 
5 128 
5 129 
5 132 
5 133 
5 135 
5 137 
5 140 
5 142 
5 143 
5 146 
5 148 
5 150 
5 151 
5 153 
5 155 
5 157 
5 160 
6 82 
6 83 
6 86 
6 88 
6 90 
6 91 
6 94 
6 95 
6 98 
6 99 
6 101 
6 104 
6 105 
6 108 
6 109 
6 111 
6 114 
6 115 
6 118 
6 119 
6 122 
6 123 
6 125 
6 127 
6 130 
6 131 
6 134 
6 136 
6 138 
6 139 
6 141 
6 144 
6 145 
6 147 
6 149 
6 152 
6 154 
6 156 
6 158 
6 159 
7 8 
7 81 
7 84 
7 85 
7 87 
7 89 
7 92 
7 93 
7 95 
7 97 
7 100 
7 101 
7 104 
7 105 
7 108 
7 110 
7 111 
7 114 
7 115 
7 118 
7 120 
7 121 
7 123 
7 125 
7 128 
7 129 
7 132 
7 134 
7 135 
7 138 
7 139 
7 141 
7 144 
7 146 
7 148 
7 149 
7 152 
7 153 
7 156 
7 158 
7 160 
8 82 
8 83 
8 86 
8 88 
8 90 
8 91 
8 94 
8 96 
8 98 
8 99 
8 102 
8 103 
8 106 
8 107 
8 109 
8 112 
8 113 
8 116 
8 117 
8 119 
8 122 
8 124 
8 126 
8 127 
8 130 
8 131 
8 133 
8 136 
8 137 
8 140 
8 142 
8 143 
8 145 
8 147 
8 150 
8 151 
8 154 
8 155 
8 157 
8 159 
9 10 
9 81 
9 84 
9 86 
9 88 
9 90 
9 92 
9 93 
9 95 
9 98 
9 99 
9 101 
9 104 
9 106 
9 107 
9 110 
9 112 
9 113 
9 115 
9 118 
9 119 
9 122 
9 123 
9 126 
9 127 
9 129 
9 131 
9 134 
9 135 
9 138 
9 139 
9 142 
9 143 
9 145 
9 148 
9 150 
9 151 
9 153 
9 155 
9 158 
9 160 
10 82 
10 83 
10 85 
10 87 
10 89 
10 91 
10 94 
10 96 
10 97 
10 100 
10 102 
10 103 
10 105 
10 108 
10 109 
10 111 
10 114 
10 116 
10 117 
10 120 
10 121 
10 124 
10 125 
10 128 
10 130 
10 132 
10 133 
10 136 
10 137 
10 140 
10 141 
10 144 
10 146 
10 147 
10 149 
10 152 
10 154 
10 156 
10 157 
10 159 
11 12 
11 81 
11 83 
11 86 
11 87 
11 90 
11 91 
11 94 
11 96 
11 97 
11 100 
11 102 
11 104 
11 105 
11 107 
11 110 
11 112 
11 113 
11 115 
11 117 
11 120 
11 121 
11 123 
11 125 
11 128 
11 130 
11 131 
11 134 
11 136 
11 138 
11 140 
11 141 
11 144 
11 145 
11 148 
11 150 
11 151 
11 153 
11 155 
11 158 
11 159 
12 82 
12 84 
12 85 
12 88 
12 89 
12 92 
12 93 
12 95 
12 98 
12 99 
12 101 
12 103 
12 106 
12 108 
12 109 
12 111 
12 114 
12 116 
12 118 
12 119 
12 122 
12 124 
12 126 
12 127 
12 129 
12 132 
12 133 
12 135 
12 137 
12 139 
12 142 
12 143 
12 146 
12 147 
12 149 
12 152 
12 154 
12 156 
12 157 
12 160 
13 14 
13 81 
13 83 
13 86 
13 87 
13 90 
13 92 
13 93 
13 95 
13 98 
13 100 
13 102 
13 104 
13 106 
13 108 
13 109 
13 111 
13 113 
13 116 
13 117 
13 120 
13 122 
13 124 
13 125 
13 127 
13 130 
13 132 
13 133 
13 135 
13 137 
13 139 
13 141 
13 144 
13 145 
13 147 
13 150 
13 151 
13 153 
13 156 
13 158 
13 160 
14 82 
14 84 
14 85 
14 88 
14 89 
14 91 
14 94 
14 96 
14 97 
14 99 
14 101 
14 103 
14 105 
14 107 
14 110 
14 112 
14 114 
14 115 
14 118 
14 119 
14 121 
14 123 
14 126 
14 128 
14 129 
14 131 
14 134 
14 136 
14 138 
14 140 
14 142 
14 143 
14 146 
14 148 
14 149 
14 152 
14 154 
14 155 
14 157 
14 159 
15 16 
15 81 
15 84 
15 86 
15 88 
15 89 
15 92 
15 94 
15 96 
15 98 
15 99 
15 101 
15 104 
15 105 
15 108 
15 110 
15 111 
15 113 
15 116 
15 117 
15 119 
15 122 
15 124 
15 125 
15 128 
15 129 
15 131 
15 133 
15 136 
15 138 
15 140 
15 141 
15 144 
15 146 
15 147 
15 149 
15 151 
15 153 
15 155 
15 157 
15 160 
16 82 
16 83 
16 85 
16 87 
16 90 
16 91 
16 93 
16 95 
16 97 
16 100 
16 102 
16 103 
16 106 
16 107 
16 109 
16 112 
16 114 
16 115 
16 118 
16 120 
16 121 
16 123 
16 126 
16 127 
16 130 
16 132 
16 134 
16 135 
16 137 
16 139 
16 142 
16 143 
16 145 
16 148 
16 150 
16 152 
16 154 
16 156 
16 158 
16 159 
17 18 
17 81 
17 83 
17 86 
17 88 
17 89 
17 92 
17 93 
17 96 
17 98 
17 100 
17 102 
17 103 
17 105 
17 108 
17 110 
17 111 
17 114 
17 115 
17 117 
17 120 
17 122 
17 123 
17 126 
17 127 
17 130 
17 132 
17 133 
17 136 
17 138 
17 139 
17 142 
17 143 
17 145 
17 148 
17 149 
17 152 
17 153 
17 155 
17 157 
17 159 
18 82 
18 84 
18 85 
18 87 
18 90 
18 91 
18 94 
18 95 
18 97 
18 99 
18 101 
18 104 
18 106 
18 107 
18 109 
18 112 
18 113 
18 116 
18 118 
18 119 
18 121 
18 124 
18 125 
18 128 
18 129 
18 131 
18 134 
18 135 
18 137 
18 140 
18 141 
18 144 
18 146 
18 147 
18 150 
18 151 
18 154 
18 156 
18 158 
18 160 
19 20 
19 82 
19 83 
19 86 
19 88 
19 89 
19 92 
19 93 
19 95 
19 97 
19 99 
19 102 
19 103 
19 105 
19 107 
19 110 
19 112 
19 114 
19 116 
19 117 
19 119 
19 122 
19 124 
19 125 
19 128 
19 129 
19 132 
19 134 
19 135 
19 138 
19 139 
19 141 
19 144 
19 145 
19 148 
19 150 
19 151 
19 154 
19 156 
19 157 
19 159 
20 81 
20 84 
20 85 
20 87 
20 90 
20 91 
20 94 
20 96 
20 98 
20 100 
20 101 
20 104 
20 106 
20 108 
20 109 
20 111 
20 113 
20 115 
20 118 
20 120 
20 121 
20 123 
20 126 
20 127 
20 130 
20 131 
20 133 
20 136 
20 137 
20 140 
20 142 
20 143 
20 146 
20 147 
20 149 
20 152 
20 153 
20 155 
20 158 
20 160 
21 22 
21 81 
21 84 
21 86 
21 88 
21 89 
21 92 
21 93 
21 95 
21 97 
21 99 
21 101 
21 104 
21 105 
21 108 
21 109 
21 112 
21 114 
21 115 
21 118 
21 120 
21 121 
21 124 
21 125 
21 128 
21 130 
21 132 
21 133 
21 136 
21 137 
21 140 
21 142 
21 143 
21 145 
21 147 
21 150 
21 151 
21 154 
21 155 
21 158 
21 159 
22 82 
22 83 
22 85 
22 87 
22 90 
22 91 
22 94 
22 96 
22 98 
22 100 
22 102 
22 103 
22 106 
22 107 
22 110 
22 111 
22 113 
22 116 
22 117 
22 119 
22 122 
22 123 
22 126 
22 127 
22 129 
22 131 
22 134 
22 135 
22 138 
22 139 
22 141 
22 144 
22 146 
22 148 
22 149 
22 152 
22 153 
22 156 
22 157 
22 160 
23 24 
23 82 
23 83 
23 86 
23 87 
23 89 
23 92 
23 93 
23 96 
23 97 
23 100 
23 101 
23 104 
23 105 
23 107 
23 109 
23 112 
23 113 
23 116 
23 118 
23 119 
23 122 
23 124 
23 126 
23 127 
23 130 
23 132 
23 134 
23 135 
23 138 
23 140 
23 141 
23 143 
23 146 
23 147 
23 149 
23 152 
23 153 
23 155 
23 158 
23 159 
24 81 
24 84 
24 85 
24 88 
24 90 
24 91 
24 94 
24 95 
24 98 
24 99 
24 102 
24 103 
24 106 
24 108 
24 110 
24 111 
24 114 
24 115 
24 117 
24 120 
24 121 
24 123 
24 125 
24 128 
24 129 
24 131 
24 133 
24 136 
24 137 
24 139 
24 142 
24 144 
24 145 
24 148 
24 150 
24 151 
24 154 
24 156 
24 157 
24 160 
25 26 
25 81 
25 83 
25 85 
25 88 
25 90 
25 92 
25 94 
25 95 
25 98 
25 99 
25 102 
25 104 
25 105 
25 107 
25 110 
25 112 
25 113 
25 115 
25 117 
25 120 
25 122 
25 123 
25 126 
25 128 
25 129 
25 132 
25 133 
25 135 
25 137 
25 140 
25 141 
25 143 
25 146 
25 147 
25 149 
25 152 
25 154 
25 156 
25 158 
25 159 
26 82 
26 84 
26 86 
26 87 
26 89 
26 91 
26 93 
26 96 
26 97 
26 100 
26 101 
26 103 
26 106 
26 108 
26 109 
26 111 
26 114 
26 116 
26 118 
26 119 
26 121 
26 124 
26 125 
26 127 
26 130 
26 131 
26 134 
26 136 
26 138 
26 139 
26 142 
26 144 
26 145 
26 148 
26 150 
26 151 
26 153 
26 155 
26 157 
26 160 
27 28 
27 81 
27 83 
27 85 
27 88 
27 90 
27 92 
27 94 
27 95 
27 98 
27 100 
27 101 
27 103 
27 106 
27 107 
27 109 
27 112 
27 113 
27 116 
27 118 
27 120 
27 121 
27 124 
27 125 
27 128 
27 129 
27 132 
27 134 
27 136 
27 138 
27 139 
27 142 
27 144 
27 145 
27 147 
27 149 
27 152 
27 153 
27 155 
27 157 
27 159 
28 82 
28 84 
28 86 
28 87 
28 89 
28 91 
28 93 
28 96 
28 97 
28 99 
28 102 
28 104 
28 105 
28 108 
28 110 
28 111 
28 114 
28 115 
28 117 
28 119 
28 122 
28 123 
28 126 
28 127 
28 130 
28 131 
28 133 
28 135 
28 137 
28 140 
28 141 
28 143 
28 146 
28 148 
28 150 
28 151 
28 154 
28 156 
28 158 
28 160 
29 30 
29 81 
29 84 
29 86 
29 88 
29 90 
29 92 
29 94 
29 96 
29 97 
29 99 
29 101 
29 104 
29 106 
29 107 
29 109 
29 111 
29 114 
29 116 
29 117 
29 120 
29 121 
29 123 
29 126 
29 127 
29 130 
29 132 
29 134 
29 135 
29 137 
29 139 
29 141 
29 144 
29 146 
29 148 
29 149 
29 151 
29 154 
29 155 
29 157 
29 159 
30 82 
30 83 
30 85 
30 87 
30 89 
30 91 
30 93 
30 95 
30 98 
30 100 
30 102 
30 103 
30 105 
30 108 
30 110 
30 112 
30 113 
30 115 
30 118 
30 119 
30 122 
30 124 
30 125 
30 128 
30 129 
30 131 
30 133 
30 136 
30 138 
30 140 
30 142 
30 143 
30 145 
30 147 
30 150 
30 152 
30 153 
30 156 
30 158 
30 160 
31 32 
31 81 
31 84 
31 86 
31 87 
31 90 
31 91 
31 93 
31 96 
31 98 
31 99 
31 102 
31 103 
31 105 
31 108 
31 109 
31 112 
31 114 
31 115 
31 118 
31 120 
31 122 
31 124 
31 126 
31 128 
31 129 
31 131 
31 134 
31 135 
31 137 
31 139 
31 141 
31 144 
31 146 
31 147 
31 150 
31 152 
31 153 
31 155 
31 157 
31 159 
32 82 
32 83 
32 85 
32 88 
32 89 
32 92 
32 94 
32 95 
32 97 
32 100 
32 101 
32 104 
32 106 
32 107 
32 110 
32 111 
32 113 
32 116 
32 117 
32 119 
32 121 
32 123 
32 125 
32 127 
32 130 
32 132 
32 133 
32 136 
32 138 
32 140 
32 142 
32 143 
32 145 
32 148 
32 149 
32 151 
32 154 
32 156 
32 158 
32 160 
33 34 
33 82 
33 84 
33 86 
33 87 
33 89 
33 91 
33 94 
33 95 
33 98 
33 100 
33 101 
33 103 
33 106 
33 108 
33 110 
33 112 
33 113 
33 115 
33 117 
33 120 
33 122 
33 124 
33 125 
33 127 
33 129 
33 132 
33 134 
33 136 
33 137 
33 139 
33 141 
33 143 
33 146 
33 148 
33 149 
33 151 
33 154 
33 155 
33 158 
33 159 
34 81 
34 83 
34 85 
34 88 
34 90 
34 92 
34 93 
34 96 
34 97 
34 99 
34 102 
34 104 
34 105 
34 107 
34 109 
34 111 
34 114 
34 116 
34 118 
34 119 
34 121 
34 123 
34 126 
34 128 
34 130 
34 131 
34 133 
34 135 
34 138 
34 140 
34 142 
34 144 
34 145 
34 147 
34 150 
34 152 
34 153 
34 156 
34 157 
34 160 
35 36 
35 82 
35 84 
35 86 
35 87 
35 90 
35 92 
35 93 
35 95 
35 98 
35 100 
35 101 
35 103 
35 105 
35 107 
35 110 
35 111 
35 113 
35 116 
35 118 
35 120 
35 121 
35 123 
35 126 
35 128 
35 130 
35 131 
35 133 
35 136 
35 138 
35 139 
35 141 
35 143 
35 146 
35 147 
35 150 
35 151 
35 154 
35 156 
35 157 
35 159 
36 81 
36 83 
36 85 
36 88 
36 89 
36 91 
36 94 
36 96 
36 97 
36 99 
36 102 
36 104 
36 106 
36 108 
36 109 
36 112 
36 114 
36 115 
36 117 
36 119 
36 122 
36 124 
36 125 
36 127 
36 129 
36 132 
36 134 
36 135 
36 137 
36 140 
36 142 
36 144 
36 145 
36 148 
36 149 
36 152 
36 153 
36 155 
36 158 
36 160 
37 38 
37 81 
37 84 
37 85 
37 88 
37 89 
37 91 
37 94 
37 95 
37 97 
37 100 
37 102 
37 104 
37 105 
37 107 
37 109 
37 111 
37 114 
37 116 
37 117 
37 120 
37 122 
37 124 
37 126 
37 127 
37 129 
37 131 
37 134 
37 136 
37 138 
37 139 
37 142 
37 143 
37 146 
37 147 
37 150 
37 151 
37 153 
37 156 
37 158 
37 159 
38 82 
38 83 
38 86 
38 87 
38 90 
38 92 
38 93 
38 96 
38 98 
38 99 
38 101 
38 103 
38 106 
38 108 
38 110 
38 112 
38 113 
38 115 
38 118 
38 119 
38 121 
38 123 
38 125 
38 128 
38 130 
38 132 
38 133 
38 135 
38 137 
38 140 
38 141 
38 144 
38 145 
38 148 
38 149 
38 152 
38 154 
38 155 
38 157 
38 160 
39 40 
39 82 
39 83 
39 85 
39 87 
39 89 
39 92 
39 94 
39 95 
39 97 
39 99 
39 102 
39 104 
39 106 
39 108 
39 110 
39 111 
39 113 
39 115 
39 118 
39 119 
39 122 
39 123 
39 126 
39 128 
39 130 
39 132 
39 134 
39 136 
39 137 
39 139 
39 142 
39 144 
39 146 
39 147 
39 150 
39 151 
39 153 
39 155 
39 157 
39 159 
40 81 
40 84 
40 86 
40 88 
40 90 
40 91 
40 93 
40 96 
40 98 
40 100 
40 101 
40 103 
40 105 
40 107 
40 109 
40 112 
40 114 
40 116 
40 117 
40 120 
40 121 
40 124 
40 125 
40 127 
40 129 
40 131 
40 133 
40 135 
40 138 
40 140 
40 141 
40 143 
40 145 
40 148 
40 149 
40 152 
40 154 
40 156 
40 158 
40 160 
41 42 
41 82 
41 84 
41 85 
41 88 
41 89 
41 92 
41 94 
41 96 
41 97 
41 99 
41 101 
41 103 
41 106 
41 108 
41 110 
41 112 
41 113 
41 115 
41 117 
41 120 
41 121 
41 124 
41 126 
41 127 
41 130 
41 131 
41 133 
41 135 
41 138 
41 139 
41 141 
41 144 
41 145 
41 147 
41 150 
41 152 
41 153 
41 156 
41 158 
41 159 
42 81 
42 83 
42 86 
42 87 
42 90 
42 91 
42 93 
42 95 
42 98 
42 100 
42 102 
42 104 
42 105 
42 107 
42 109 
42 111 
42 114 
42 116 
42 118 
42 119 
42 122 
42 123 
42 125 
42 128 
42 129 
42 132 
42 134 
42 136 
42 137 
42 140 
42 142 
42 143 
42 146 
42 148 
42 149 
42 151 
42 154 
42 155 
42 157 
42 160 
43 44 
43 81 
43 83 
43 85 
43 88 
43 90 
43 92 
43 93 
43 96 
43 97 
43 100 
43 101 
43 103 
43 106 
43 107 
43 110 
43 111 
43 114 
43 115 
43 117 
43 119 
43 122 
43 124 
43 125 
43 128 
43 130 
43 131 
43 134 
43 136 
43 137 
43 139 
43 141 
43 143 
43 146 
43 147 
43 150 
43 152 
43 154 
43 155 
43 158 
43 160 
44 82 
44 84 
44 86 
44 87 
44 89 
44 91 
44 94 
44 95 
44 98 
44 99 
44 102 
44 104 
44 105 
44 108 
44 109 
44 112 
44 113 
44 116 
44 118 
44 120 
44 121 
44 123 
44 126 
44 127 
44 129 
44 132 
44 133 
44 135 
44 138 
44 140 
44 142 
44 144 
44 145 
44 148 
44 149 
44 151 
44 153 
44 156 
44 157 
44 159 
45 46 
45 81 
45 84 
45 86 
45 87 
45 89 
45 92 
45 93 
45 95 
45 98 
45 99 
45 102 
45 103 
45 106 
45 107 
45 110 
45 112 
45 114 
45 116 
45 117 
45 119 
45 121 
45 123 
45 125 
45 127 
45 130 
45 131 
45 134 
45 136 
45 137 
45 140 
45 142 
45 144 
45 146 
45 147 
45 149 
45 152 
45 153 
45 156 
45 158 
45 159 
46 82 
46 83 
46 85 
46 88 
46 90 
46 91 
46 94 
46 96 
46 97 
46 100 
46 101 
46 104 
46 105 
46 108 
46 109 
46 111 
46 113 
46 115 
46 118 
46 120 
46 122 
46 124 
46 126 
46 128 
46 129 
46 132 
46 133 
46 135 
46 138 
46 139 
46 141 
46 143 
46 145 
46 148 
46 150 
46 151 
46 154 
46 155 
46 157 
46 160 
47 48 
47 81 
47 84 
47 86 
47 87 
47 89 
47 92 
47 94 
47 96 
47 97 
47 99 
47 102 
47 103 
47 106 
47 107 
47 109 
47 111 
47 113 
47 115 
47 118 
47 120 
47 122 
47 123 
47 125 
47 127 
47 129 
47 132 
47 134 
47 136 
47 138 
47 140 
47 141 
47 143 
47 145 
47 147 
47 150 
47 152 
47 154 
47 156 
47 157 
47 160 
48 82 
48 83 
48 85 
48 88 
48 90 
48 91 
48 93 
48 95 
48 98 
48 100 
48 101 
48 104 
48 105 
48 108 
48 110 
48 112 
48 114 
48 116 
48 117 
48 119 
48 121 
48 124 
48 126 
48 128 
48 130 
48 131 
48 133 
48 135 
48 137 
48 139 
48 142 
48 144 
48 146 
48 148 
48 149 
48 151 
48 153 
48 155 
48 158 
48 159 
49 50 
49 81 
49 84 
49 85 
49 87 
49 90 
49 91 
49 93 
49 95 
49 97 
49 100 
49 101 
49 104 
49 106 
49 108 
49 110 
49 112 
49 114 
49 116 
49 117 
49 119 
49 122 
49 123 
49 126 
49 127 
49 129 
49 132 
49 133 
49 136 
49 138 
49 140 
49 141 
49 144 
49 145 
49 147 
49 150 
49 152 
49 154 
49 155 
49 157 
49 159 
50 82 
50 83 
50 86 
50 88 
50 89 
50 92 
50 94 
50 96 
50 98 
50 99 
50 102 
50 103 
50 105 
50 107 
50 109 
50 111 
50 113 
50 115 
50 118 
50 120 
50 121 
50 124 
50 125 
50 128 
50 130 
50 131 
50 134 
50 135 
50 137 
50 139 
50 142 
50 143 
50 146 
50 148 
50 149 
50 151 
50 153 
50 156 
50 158 
50 160 
51 52 
51 82 
51 84 
51 86 
51 88 
51 90 
51 92 
51 93 
51 96 
51 98 
51 100 
51 102 
51 104 
51 106 
51 108 
51 109 
51 111 
51 113 
51 115 
51 117 
51 119 
51 121 
51 124 
51 126 
51 128 
51 129 
51 132 
51 134 
51 136 
51 138 
51 140 
51 142 
51 144 
51 146 
51 148 
51 150 
51 152 
51 154 
51 156 
51 158 
51 159 
52 81 
52 83 
52 85 
52 87 
52 89 
52 91 
52 94 
52 95 
52 97 
52 99 
52 101 
52 103 
52 105 
52 107 
52 110 
52 112 
52 114 
52 116 
52 118 
52 120 
52 122 
52 123 
52 125 
52 127 
52 130 
52 131 
52 133 
52 135 
52 137 
52 139 
52 141 
52 143 
52 145 
52 147 
52 149 
52 151 
52 153 
52 155 
52 157 
52 160 
53 54 
53 81 
53 83 
53 86 
53 88 
53 89 
53 91 
53 93 
53 96 
53 97 
53 100 
53 101 
53 103 
53 106 
53 108 
53 110 
53 111 
53 113 
53 116 
53 118 
53 120 
53 122 
53 123 
53 126 
53 128 
53 129 
53 131 
53 134 
53 135 
53 137 
53 140 
53 142 
53 144 
53 145 
53 147 
53 149 
53 151 
53 154 
53 156 
53 158 
53 159 
54 82 
54 84 
54 85 
54 87 
54 90 
54 92 
54 94 
54 95 
54 98 
54 99 
54 102 
54 104 
54 105 
54 107 
54 109 
54 112 
54 114 
54 115 
54 117 
54 119 
54 121 
54 124 
54 125 
54 127 
54 130 
54 132 
54 133 
54 136 
54 138 
54 139 
54 141 
54 143 
54 146 
54 148 
54 150 
54 152 
54 153 
54 155 
54 157 
54 160 
55 56 
55 82 
55 84 
55 85 
55 87 
55 90 
55 92 
55 93 
55 96 
55 97 
55 99 
55 102 
55 104 
55 105 
55 107 
55 110 
55 111 
55 113 
55 116 
55 118 
55 120 
55 122 
55 124 
55 125 
55 127 
55 129 
55 131 
55 133 
55 136 
55 137 
55 139 
55 142 
55 144 
55 145 
55 148 
55 149 
55 152 
55 154 
55 155 
55 158 
55 159 
56 81 
56 83 
56 86 
56 88 
56 89 
56 91 
56 94 
56 95 
56 98 
56 100 
56 101 
56 103 
56 106 
56 108 
56 109 
56 112 
56 114 
56 115 
56 117 
56 119 
56 121 
56 123 
56 126 
56 128 
56 130 
56 132 
56 134 
56 135 
56 138 
56 140 
56 141 
56 143 
56 146 
56 147 
56 150 
56 151 
56 153 
56 156 
56 157 
56 160 
57 58 
57 81 
57 83 
57 86 
57 87 
57 90 
57 92 
57 94 
57 96 
57 97 
57 100 
57 102 
57 104 
57 106 
57 108 
57 110 
57 112 
57 114 
57 115 
57 118 
57 119 
57 121 
57 124 
57 125 
57 127 
57 129 
57 131 
57 133 
57 135 
57 138 
57 139 
57 142 
57 143 
57 146 
57 147 
57 149 
57 151 
57 154 
57 156 
57 157 
57 159 
58 82 
58 84 
58 85 
58 88 
58 89 
58 91 
58 93 
58 95 
58 98 
58 99 
58 101 
58 103 
58 105 
58 107 
58 109 
58 111 
58 113 
58 116 
58 117 
58 120 
58 122 
58 123 
58 126 
58 128 
58 130 
58 132 
58 134 
58 136 
58 137 
58 140 
58 141 
58 144 
58 145 
58 148 
58 150 
58 152 
58 153 
58 155 
58 158 
58 160 
59 60 
59 82 
59 84 
59 86 
59 88 
59 89 
59 91 
59 94 
59 96 
59 98 
59 100 
59 102 
59 104 
59 106 
59 107 
59 110 
59 112 
59 114 
59 116 
59 118 
59 120 
59 122 
59 123 
59 125 
59 128 
59 130 
59 132 
59 133 
59 135 
59 138 
59 139 
59 142 
59 144 
59 146 
59 147 
59 150 
59 152 
59 154 
59 155 
59 158 
59 160 
60 81 
60 83 
60 85 
60 87 
60 90 
60 92 
60 93 
60 95 
60 97 
60 99 
60 101 
60 103 
60 105 
60 108 
60 109 
60 111 
60 113 
60 115 
60 117 
60 119 
60 121 
60 124 
60 126 
60 127 
60 129 
60 131 
60 134 
60 136 
60 137 
60 140 
60 141 
60 143 
60 145 
60 148 
60 149 
60 151 
60 153 
60 156 
60 157 
60 159 
61 62 
61 81 
61 83 
61 86 
61 87 
61 89 
61 91 
61 94 
61 96 
61 98 
61 99 
61 101 
61 104 
61 106 
61 107 
61 110 
61 111 
61 114 
61 116 
61 118 
61 119 
61 121 
61 124 
61 126 
61 128 
61 129 
61 132 
61 133 
61 136 
61 137 
61 139 
61 141 
61 143 
61 145 
61 148 
61 150 
61 152 
61 153 
61 156 
61 158 
61 159 
62 82 
62 84 
62 85 
62 88 
62 90 
62 92 
62 93 
62 95 
62 97 
62 100 
62 102 
62 103 
62 105 
62 108 
62 109 
62 112 
62 113 
62 115 
62 117 
62 120 
62 122 
62 123 
62 125 
62 127 
62 130 
62 131 
62 134 
62 135 
62 138 
62 140 
62 142 
62 144 
62 146 
62 147 
62 149 
62 151 
62 154 
62 155 
62 157 
62 160 
63 64 
63 82 
63 83 
63 86 
63 87 
63 90 
63 92 
63 94 
63 95 
63 97 
63 99 
63 101 
63 103 
63 106 
63 108 
63 109 
63 111 
63 114 
63 116 
63 117 
63 120 
63 122 
63 123 
63 125 
63 128 
63 129 
63 131 
63 133 
63 135 
63 138 
63 140 
63 142 
63 143 
63 146 
63 148 
63 150 
63 152 
63 153 
63 155 
63 158 
63 159 
64 81 
64 84 
64 85 
64 88 
64 89 
64 91 
64 93 
64 96 
64 98 
64 100 
64 102 
64 104 
64 105 
64 107 
64 110 
64 112 
64 113 
64 115 
64 118 
64 119 
64 121 
64 124 
64 126 
64 127 
64 130 
64 132 
64 134 
64 136 
64 137 
64 139 
64 141 
64 144 
64 145 
64 147 
64 149 
64 151 
64 154 
64 156 
64 157 
64 160 
65 66 
65 82 
65 84 
65 86 
65 87 
65 90 
65 92 
65 94 
65 96 
65 97 
65 100 
65 101 
65 103 
65 105 
65 107 
65 109 
65 112 
65 114 
65 115 
65 117 
65 119 
65 122 
65 123 
65 126 
65 128 
65 129 
65 132 
65 133 
65 136 
65 137 
65 139 
65 142 
65 144 
65 145 
65 147 
65 149 
65 151 
65 153 
65 156 
65 158 
65 160 
66 81 
66 83 
66 85 
66 88 
66 89 
66 91 
66 93 
66 95 
66 98 
66 99 
66 102 
66 104 
66 106 
66 108 
66 110 
66 111 
66 113 
66 116 
66 118 
66 120 
66 121 
66 124 
66 125 
66 127 
66 130 
66 131 
66 134 
66 135 
66 138 
66 140 
66 141 
66 143 
66 146 
66 148 
66 150 
66 152 
66 154 
66 155 
66 157 
66 159 
67 68 
67 81 
67 83 
67 86 
67 87 
67 89 
67 91 
67 93 
67 95 
67 97 
67 99 
67 101 
67 104 
67 106 
67 107 
67 109 
67 112 
67 113 
67 115 
67 117 
67 120 
67 122 
67 124 
67 126 
67 128 
67 130 
67 131 
67 133 
67 136 
67 138 
67 139 
67 142 
67 144 
67 146 
67 148 
67 149 
67 152 
67 154 
67 156 
67 157 
67 160 
68 82 
68 84 
68 85 
68 88 
68 90 
68 92 
68 94 
68 96 
68 98 
68 100 
68 102 
68 103 
68 105 
68 108 
68 110 
68 111 
68 114 
68 116 
68 118 
68 119 
68 121 
68 123 
68 125 
68 127 
68 129 
68 132 
68 134 
68 135 
68 137 
68 140 
68 141 
68 143 
68 145 
68 147 
68 150 
68 151 
68 153 
68 155 
68 158 
68 159 
69 70 
69 82 
69 83 
69 86 
69 87 
69 89 
69 92 
69 94 
69 95 
69 98 
69 100 
69 101 
69 104 
69 105 
69 107 
69 110 
69 111 
69 114 
69 115 
69 117 
69 120 
69 121 
69 124 
69 126 
69 127 
69 129 
69 131 
69 134 
69 135 
69 137 
69 140 
69 142 
69 144 
69 145 
69 147 
69 150 
69 152 
69 154 
69 155 
69 157 
69 160 
70 81 
70 84 
70 85 
70 88 
70 90 
70 91 
70 93 
70 96 
70 97 
70 99 
70 102 
70 103 
70 106 
70 108 
70 109 
70 112 
70 113 
70 116 
70 118 
70 119 
70 122 
70 123 
70 125 
70 128 
70 130 
70 132 
70 133 
70 136 
70 138 
70 139 
70 141 
70 143 
70 146 
70 148 
70 149 
70 151 
70 153 
70 156 
70 158 
70 159 
71 72 
71 82 
71 83 
71 85 
71 88 
71 89 
71 92 
71 93 
71 96 
71 98 
71 100 
71 101 
71 104 
71 106 
71 107 
71 109 
71 112 
71 114 
71 115 
71 118 
71 120 
71 122 
71 123 
71 125 
71 127 
71 129 
71 131 
71 133 
71 136 
71 137 
71 140 
71 141 
71 144 
71 146 
71 148 
71 150 
71 151 
71 153 
71 156 
71 157 
71 159 
72 81 
72 84 
72 86 
72 87 
72 90 
72 91 
72 94 
72 95 
72 97 
72 99 
72 102 
72 103 
72 105 
72 108 
72 110 
72 111 
72 113 
72 116 
72 117 
72 119 
72 121 
72 124 
72 126 
72 128 
72 130 
72 132 
72 134 
72 135 
72 138 
72 139 
72 142 
72 143 
72 145 
72 147 
72 149 
72 152 
72 154 
72 155 
72 158 
72 160 
73 74 
73 81 
73 84 
73 85 
73 87 
73 89 
73 92 
73 94 
73 95 
73 98 
73 100 
73 102 
73 103 
73 106 
73 107 
73 109 
73 111 
73 114 
73 115 
73 118 
73 119 
73 122 
73 124 
73 126 
73 128 
73 130 
73 131 
73 133 
73 135 
73 138 
73 140 
73 141 
73 144 
73 145 
73 148 
73 149 
73 151 
73 154 
73 155 
73 158 
73 159 
74 82 
74 83 
74 86 
74 88 
74 90 
74 91 
74 93 
74 96 
74 97 
74 99 
74 101 
74 104 
74 105 
74 108 
74 110 
74 112 
74 113 
74 116 
74 117 
74 120 
74 121 
74 123 
74 125 
74 127 
74 129 
74 132 
74 134 
74 136 
74 137 
74 139 
74 142 
74 143 
74 146 
74 147 
74 150 
74 152 
74 153 
74 156 
74 157 
74 160 
75 76 
75 81 
75 84 
75 85 
75 87 
75 89 
75 92 
75 94 
75 96 
75 98 
75 100 
75 101 
75 104 
75 105 
75 108 
75 109 
75 112 
75 113 
75 116 
75 117 
75 119 
75 122 
75 123 
75 125 
75 128 
75 130 
75 131 
75 134 
75 135 
75 137 
75 139 
75 142 
75 143 
75 145 
75 148 
75 150 
75 152 
75 154 
75 156 
75 157 
75 159 
76 82 
76 83 
76 86 
76 88 
76 90 
76 91 
76 93 
76 95 
76 97 
76 99 
76 102 
76 103 
76 106 
76 107 
76 110 
76 111 
76 114 
76 115 
76 118 
76 120 
76 121 
76 124 
76 126 
76 127 
76 129 
76 132 
76 133 
76 136 
76 138 
76 140 
76 141 
76 144 
76 146 
76 147 
76 149 
76 151 
76 153 
76 155 
76 158 
76 160 
77 78 
77 81 
77 84 
77 86 
77 88 
77 90 
77 91 
77 94 
77 95 
77 97 
77 100 
77 101 
77 103 
77 105 
77 107 
77 110 
77 111 
77 113 
77 115 
77 118 
77 119 
77 122 
77 124 
77 125 
77 127 
77 130 
77 132 
77 133 
77 135 
77 137 
77 140 
77 142 
77 144 
77 146 
77 148 
77 150 
77 152 
77 153 
77 156 
77 157 
77 159 
78 82 
78 83 
78 85 
78 87 
78 89 
78 92 
78 93 
78 96 
78 98 
78 99 
78 102 
78 104 
78 106 
78 108 
78 109 
78 112 
78 114 
78 116 
78 117 
78 120 
78 121 
78 123 
78 126 
78 128 
78 129 
78 131 
78 134 
78 136 
78 138 
78 139 
78 141 
78 143 
78 145 
78 147 
78 149 
78 151 
78 154 
78 155 
78 158 
78 160 
79 80 
79 81 
79 83 
79 86 
79 88 
79 89 
79 92 
79 94 
79 95 
79 97 
79 100 
79 102 
79 103 
79 105 
79 108 
79 109 
79 112 
79 113 
79 116 
79 118 
79 119 
79 121 
79 123 
79 126 
79 127 
79 129 
79 131 
79 133 
79 136 
79 137 
79 139 
79 141 
79 144 
79 146 
79 148 
79 150 
79 152 
79 154 
79 155 
79 158 
79 160 
80 82 
80 84 
80 85 
80 87 
80 90 
80 91 
80 93 
80 96 
80 98 
80 99 
80 101 
80 104 
80 106 
80 107 
80 110 
80 111 
80 114 
80 115 
80 117 
80 120 
80 122 
80 124 
80 125 
80 128 
80 130 
80 132 
80 134 
80 135 
80 138 
80 140 
80 142 
80 143 
80 145 
80 147 
80 149 
80 151 
80 153 
80 156 
80 157 
80 159 
81 82 
83 84 
85 86 
87 88 
89 90 
91 92 
93 94 
95 96 
97 98 
99 100 
101 102 
103 104 
105 106 
107 108 
109 110 
111 112 
113 114 
115 116 
117 118 
119 120 
121 122 
123 124 
125 126 
127 128 
129 130 
131 132 
133 134 
135 136 
137 138 
139 140 
141 142 
143 144 
145 146 
147 148 
149 150 
151 152 
153 154 
155 156 
157 158 
159 160 
